\ENCODING=ISO-8859-1
\Problem name: IloCplex

Maximize
 obj1: 10000 x1 + 15000 x2 + 40000 x3 + 11000 x4 + 18000 x5 + 50000 x6
       + 15000 x7 + 19000 x8 + 45000 x9 + 15000 x10 + 19000 x11 + 45000 x12
       - 10000 x13 - 15000 x14 - 40000 x15 - 11000 x16 - 18000 x17 - 50000 x18
       - 15000 x19 - 19000 x20 - 45000 x21
Subject To
 c1:  x13 + x16 + x19  = 1
 c2:  x14 + x17 + x20  = 1
 c3:  x15 + x18 + x21 <= 1
 c4:  - x15 - x18 - x21 + x22 <= 0
 c5:  - x15 - x18 - x21 + x22 >= 0
 c6:  x15 + x18 + x21 - x22 <= 0
 c7:  x5 - 63996000000 x13 - 15999000 x16 - 5333 x19 <= 0
 c8:  x6 - 755950000 x13 - 650000 x16 - 1000 x19 <= 0
 c9:  x7 - 75000000 x13 - 150000 x16 - 600 x19 <= 0
 c10: x8 <= 0
 c11: x1 + x5 - 42345147000 x14 - 11271000 x17 - 3757 x20 <= 0
 c12: x2 + x6 - 467417600 x14 - 551200 x17 - 848 x20 <= 0
 c13: x3 + x7 <= 0
 c14: x4 + x8 <= 0
 c15: x9 - 216 x15 - 36 x18 - 6 x21 <= 0
 c16: x10 <= 0
 c17: x11 <= 0
 c18: x12 <= 0
 c19: x9 <= 6
 c20: x10 <= 0
 c21: x11 <= 0
 c22: x12 <= 0
 c23: x1 <= 3757
 c24: x2 <= 848
 c25: x3 <= 0
 c26: x4 <= 82
 c27: x5 <= 5333
 c28: x6 <= 1163
 c29: x7 <= 606
 c30: x8 <= 0
 c31: x9 <= 6
 c32: x10 <= 0
 c33: x11 <= 0
 c34: x12 <= 0
Bounds
      x1 >= 0
      x2 >= 0
      x3 >= 0
      x4 >= 0
      x5 >= 0
      x6 >= 0
      x7 >= 0
      x8 >= 0
      x9 >= 0
      x10 >= 0
      x11 >= 0
      x12 >= 0
      x13 >= 0
      x14 >= 0
      x15 >= 0
      x16 >= 0
      x17 >= 0
      x18 >= 0
      x19 >= 0
      x20 >= 0
      x21 >= 0
      x22 >= 0
Generals
 x1  x2  x3  x4  x5  x6  x7  x8  x9  x10  x11  x12  x13  x14  x15  x16  x17 
 x18  x19  x20  x21  x22 
End
